c Result of efficient AIG-to-CNF conversion using package CNF
p cnf 427 1604
-2 3 283 344 349 0
-2 -3 -283 344 349 0
2 -344 0
2 3 -283 0
2 -349 0
2 -3 283 0
3 4 -78 0
3 -4 78 0
-3 -4 -78 0
-3 4 78 0
4 5 -36 0
4 -5 36 0
-4 -5 -36 0
-4 5 36 0
5 -364 -396 0
5 -396 -6 0
5 -364 -6 0
-5 364 6 0
-5 396 6 0
-5 364 396 0
6 -365 -397 0
6 -397 -7 0
6 -365 -7 0
-6 365 7 0
-6 397 7 0
-6 365 397 0
7 -366 -398 0
7 -398 -8 0
7 -366 -8 0
-7 366 8 0
-7 398 8 0
-7 366 398 0
8 -367 -399 0
8 -399 -9 0
8 -367 -9 0
-8 367 9 0
-8 399 9 0
-8 367 399 0
9 -368 -400 0
9 -400 -10 0
9 -368 -10 0
-9 368 10 0
-9 400 10 0
-9 368 400 0
10 -369 -401 0
10 -401 -11 0
10 -369 -11 0
-10 369 11 0
-10 401 11 0
-10 369 401 0
11 -370 -402 0
11 -402 -12 0
11 -370 -12 0
-11 370 12 0
-11 402 12 0
-11 370 402 0
12 -371 -403 0
12 -403 -13 0
12 -371 -13 0
-12 371 13 0
-12 403 13 0
-12 371 403 0
13 -372 -404 0
13 -404 -14 0
13 -372 -14 0
-13 372 14 0
-13 404 14 0
-13 372 404 0
14 -373 -405 0
14 -405 -15 0
14 -373 -15 0
-14 373 15 0
-14 405 15 0
-14 373 405 0
15 -374 -406 0
15 -406 -16 0
15 -374 -16 0
-15 374 16 0
-15 406 16 0
-15 374 406 0
16 -375 -407 0
16 -407 -17 0
16 -375 -17 0
-16 375 17 0
-16 407 17 0
-16 375 407 0
17 -376 -408 0
17 -408 -18 0
17 -376 -18 0
-17 376 18 0
-17 408 18 0
-17 376 408 0
18 -377 -409 0
18 -409 -19 0
18 -377 -19 0
-18 377 19 0
-18 409 19 0
-18 377 409 0
19 -378 -410 0
19 -410 -20 0
19 -378 -20 0
-19 378 20 0
-19 410 20 0
-19 378 410 0
20 -379 -411 0
20 -411 -21 0
20 -379 -21 0
-20 379 21 0
-20 411 21 0
-20 379 411 0
21 -380 -412 0
21 -412 -22 0
21 -380 -22 0
-21 380 22 0
-21 412 22 0
-21 380 412 0
22 -381 -413 0
22 -413 -23 0
22 -381 -23 0
-22 381 23 0
-22 413 23 0
-22 381 413 0
23 -382 -414 0
23 -414 -24 0
23 -382 -24 0
-23 382 24 0
-23 414 24 0
-23 382 414 0
24 -383 -415 0
24 -415 -25 0
24 -383 -25 0
-24 383 25 0
-24 415 25 0
-24 383 415 0
25 -384 -416 0
25 -416 -26 0
25 -384 -26 0
-25 384 26 0
-25 416 26 0
-25 384 416 0
26 -385 -417 0
26 -417 -27 0
26 -385 -27 0
-26 385 27 0
-26 417 27 0
-26 385 417 0
27 -386 -418 0
27 -418 -28 0
27 -386 -28 0
-27 386 28 0
-27 418 28 0
-27 386 418 0
28 -387 -419 0
28 -419 -29 0
28 -387 -29 0
-28 387 29 0
-28 419 29 0
-28 387 419 0
29 -388 -420 0
29 -420 -30 0
29 -388 -30 0
-29 388 30 0
-29 420 30 0
-29 388 420 0
30 -389 -421 0
30 -421 -31 0
30 -389 -31 0
-30 389 31 0
-30 421 31 0
-30 389 421 0
31 -390 -422 0
31 -422 -32 0
31 -390 -32 0
-31 390 32 0
-31 422 32 0
-31 390 422 0
32 -391 -423 0
32 -423 -33 0
32 -391 -33 0
-32 391 33 0
-32 423 33 0
-32 391 423 0
33 -392 -424 0
33 -424 -34 0
33 -392 -34 0
-33 392 34 0
-33 424 34 0
-33 392 424 0
34 -393 -425 0
34 -425 -35 0
34 -393 -35 0
-34 393 35 0
-34 425 35 0
-34 393 425 0
35 -394 -426 0
-35 394 0
-35 426 0
36 -363 37 0
36 363 -37 0
-36 363 37 0
-36 -363 -37 0
-37 395 38 0
37 -395 0
37 -38 0
38 422 -39 54 0
38 -422 54 -65 0
-38 -54 0
-38 -422 65 0
-38 422 39 0
39 423 -40 0
39 -423 -47 0
-39 -423 47 0
-39 423 40 0
40 424 -41 0
40 -424 -44 0
-40 -424 44 0
-40 424 41 0
41 -425 -42 0
41 425 -43 0
-41 -425 42 0
-41 425 43 0
42 -398 -426 0
42 -397 426 0
-42 397 426 0
-42 398 -426 0
-43 395 426 0
-43 396 -426 0
43 -396 -426 0
43 -395 426 0
44 425 -45 0
44 -425 -46 0
-44 -425 46 0
-44 425 45 0
45 -400 -426 0
45 -399 426 0
-45 399 426 0
-45 400 -426 0
46 -402 -426 0
46 -401 426 0
-46 401 426 0
-46 402 -426 0
47 424 -48 0
47 -424 -51 0
-47 -424 51 0
-47 424 48 0
48 425 -49 0
48 -425 -50 0
-48 -425 50 0
-48 425 49 0
49 -404 -426 0
49 -403 426 0
-49 403 426 0
-49 404 -426 0
50 -406 -426 0
50 -405 426 0
-50 405 426 0
-50 406 -426 0
51 425 -52 0
51 -425 -53 0
-51 -425 53 0
-51 425 52 0
52 -408 -426 0
52 -407 426 0
-52 407 426 0
-52 408 -426 0
53 -410 -426 0
53 -409 426 0
-53 409 426 0
-53 410 -426 0
-54 55 61 63 64 0
54 -64 0
54 -55 0
54 -63 0
54 -61 0
-55 409 411 56 58 0
55 -409 0
55 -58 0
55 -56 0
55 -411 0
-56 401 407 408 57 0
56 -57 0
56 -408 0
56 -401 0
56 -407 0
-57 405 406 412 0
57 -405 0
57 -412 0
57 -406 0
-58 402 403 404 59 0
58 -59 0
58 -404 0
58 -402 0
58 -403 0
-59 415 418 421 60 0
59 -60 0
59 -421 0
59 -415 0
59 -418 0
-60 416 417 0
60 -416 0
60 -417 0
-61 413 419 420 62 0
61 -62 0
61 -420 0
61 -413 0
61 -419 0
-62 400 410 0
62 -400 0
62 -410 0
-63 396 414 0
63 -396 0
63 -414 0
-64 397 398 399 0
64 -397 0
64 -399 0
64 -398 0
65 423 -66 0
65 -423 -73 0
-65 -423 73 0
-65 423 66 0
66 424 -67 0
66 -424 -70 0
-66 -424 70 0
-66 424 67 0
67 425 -68 0
67 -425 -69 0
-67 -425 69 0
-67 425 68 0
68 -412 -426 0
68 -411 426 0
-68 411 426 0
-68 412 -426 0
69 -414 -426 0
69 -413 426 0
-69 413 426 0
-69 414 -426 0
70 425 -71 0
70 -425 -72 0
-70 -425 72 0
-70 425 71 0
71 -416 -426 0
71 -415 426 0
-71 415 426 0
-71 416 -426 0
72 -418 -426 0
72 -417 426 0
-72 417 426 0
-72 418 -426 0
73 424 -74 0
73 -424 -77 0
-73 -424 77 0
-73 424 74 0
74 425 -75 0
74 -425 -76 0
-74 -425 76 0
-74 425 75 0
75 -420 -426 0
75 -419 426 0
-75 419 426 0
-75 420 -426 0
76 -422 -426 0
76 -421 426 0
-76 421 426 0
-76 422 -426 0
-77 424 425 -426 0
-77 423 425 426 0
77 -425 0
77 -423 426 0
77 -424 -426 0
78 -79 -110 0
78 -79 -108 0
78 -108 -110 0
-78 108 110 0
-78 79 110 0
-78 79 108 0
79 -422 80 -96 0
79 422 80 -81 0
-79 -80 0
-79 -422 96 0
-79 422 81 0
-80 395 54 0
80 -395 0
80 -54 0
-81 423 82 0
-81 -423 89 0
81 -423 -89 0
81 423 -82 0
-82 424 83 0
-82 -424 86 0
82 -424 -86 0
82 424 -83 0
-83 425 85 0
-83 -425 84 0
83 -425 -84 0
83 425 -85 0
84 -399 -426 0
84 -398 426 0
-84 398 426 0
-84 399 -426 0
85 -397 -426 0
85 -396 426 0
-85 396 426 0
-85 397 -426 0
86 425 -87 0
86 -425 -88 0
-86 -425 88 0
-86 425 87 0
87 -401 -426 0
87 -400 426 0
-87 400 426 0
-87 401 -426 0
88 -403 -426 0
88 -402 426 0
-88 402 426 0
-88 403 -426 0
89 424 -90 0
89 -424 -93 0
-89 -424 93 0
-89 424 90 0
90 425 -91 0
90 -425 -92 0
-90 -425 92 0
-90 425 91 0
91 -405 -426 0
91 -404 426 0
-91 404 426 0
-91 405 -426 0
92 -407 -426 0
92 -406 426 0
-92 406 426 0
-92 407 -426 0
93 425 -94 0
93 -425 -95 0
-93 -425 95 0
-93 425 94 0
94 -409 -426 0
94 -408 426 0
-94 408 426 0
-94 409 -426 0
95 -411 -426 0
95 -410 426 0
-95 410 426 0
-95 411 -426 0
96 423 -97 0
96 -423 -104 0
-96 -423 104 0
-96 423 97 0
97 424 -98 0
97 -424 -101 0
-97 -424 101 0
-97 424 98 0
98 425 -99 0
98 -425 -100 0
-98 -425 100 0
-98 425 99 0
99 -413 -426 0
99 -412 426 0
-99 412 426 0
-99 413 -426 0
100 -415 -426 0
100 -414 426 0
-100 414 426 0
-100 415 -426 0
101 425 -102 0
101 -425 -103 0
-101 -425 103 0
-101 425 102 0
102 -417 -426 0
102 -416 426 0
-102 416 426 0
-102 417 -426 0
103 -419 -426 0
103 -418 426 0
-103 418 426 0
-103 419 -426 0
104 424 -105 0
104 -424 425 426 0
-104 -424 -425 0
-104 424 105 0
-104 -424 -426 0
105 425 -106 0
105 -425 -107 0
-105 -425 107 0
-105 425 106 0
106 -421 -426 0
106 -420 426 0
-106 420 426 0
-106 421 -426 0
107 -423 -426 0
107 -422 426 0
-107 422 426 0
-107 423 -426 0
-108 -6 -109 0
-108 6 109 0
108 6 -109 0
108 -6 109 0
109 364 -396 0
109 -364 396 0
-109 -364 -396 0
-109 364 396 0
110 -111 -128 0
110 -111 -126 0
110 -126 -128 0
-110 126 128 0
-110 111 128 0
-110 111 126 0
111 -422 80 -119 0
111 422 80 -112 0
-111 -80 0
-111 -422 119 0
-111 422 112 0
-112 423 113 0
-112 -423 116 0
112 -423 -116 0
112 423 -113 0
-113 424 114 0
-113 -424 115 0
113 -424 -115 0
113 424 -114 0
-114 -425 45 0
-114 425 42 0
114 425 -42 0
114 -425 -45 0
115 425 -46 0
115 -425 -49 0
-115 -425 49 0
-115 425 46 0
116 424 -117 0
116 -424 -118 0
-116 -424 118 0
-116 424 117 0
117 425 -50 0
117 -425 -52 0
-117 -425 52 0
-117 425 50 0
118 425 -53 0
118 -425 -68 0
-118 -425 68 0
-118 425 53 0
119 423 -120 0
119 -423 -123 0
-119 -423 123 0
-119 423 120 0
120 424 -121 0
120 -424 -122 0
-120 -424 122 0
-120 424 121 0
121 425 -69 0
121 -425 -71 0
-121 -425 71 0
-121 425 69 0
122 425 -72 0
122 -425 -75 0
-122 -425 75 0
-122 425 72 0
123 424 -124 0
123 -424 425 -426 0
-123 -424 -425 0
-123 424 124 0
-123 -424 426 0
124 425 -76 0
124 -425 -125 0
-124 -425 125 0
-124 425 76 0
125 -424 -426 0
125 -423 426 0
-125 423 426 0
-125 424 -426 0
-126 -7 -127 0
-126 7 127 0
126 7 -127 0
126 -7 127 0
127 365 -397 0
127 -365 397 0
-127 -365 -397 0
-127 365 397 0
128 -129 -145 0
128 -129 -143 0
128 -143 -145 0
-128 143 145 0
-128 129 145 0
-128 129 143 0
129 -422 80 -137 0
129 422 80 -130 0
-129 -80 0
-129 -422 137 0
-129 422 130 0
-130 423 131 0
-130 -423 134 0
130 -423 -134 0
130 423 -131 0
-131 424 132 0
-131 -424 133 0
131 -424 -133 0
131 424 -132 0
-132 -425 87 0
-132 425 84 0
132 425 -84 0
132 -425 -87 0
133 425 -88 0
133 -425 -91 0
-133 -425 91 0
-133 425 88 0
134 424 -135 0
134 -424 -136 0
-134 -424 136 0
-134 424 135 0
135 425 -92 0
135 -425 -94 0
-135 -425 94 0
-135 425 92 0
136 425 -95 0
136 -425 -99 0
-136 -425 99 0
-136 425 95 0
137 423 -138 0
137 -423 -141 0
-137 -423 141 0
-137 423 138 0
138 424 -139 0
138 -424 -140 0
-138 -424 140 0
-138 424 139 0
139 425 -100 0
139 -425 -102 0
-139 -425 102 0
-139 425 100 0
140 425 -103 0
140 -425 -106 0
-140 -425 106 0
-140 425 103 0
141 424 -142 0
-141 -424 0
-141 142 0
142 -424 -425 0
142 425 -107 0
142 -425 -426 0
-142 425 107 0
-142 424 -425 426 0
-143 -8 -144 0
-143 8 144 0
143 8 -144 0
143 -8 144 0
144 366 -398 0
144 -366 398 0
-144 -366 -398 0
-144 366 398 0
145 -146 -155 0
145 -146 -153 0
145 -153 -155 0
-145 153 155 0
-145 146 155 0
-145 146 153 0
146 -422 80 -150 0
146 422 80 -147 0
-146 -80 0
-146 -422 150 0
-146 422 147 0
-147 423 148 0
-147 -423 149 0
147 -423 -149 0
147 423 -148 0
-148 -424 48 0
-148 424 44 0
148 424 -44 0
148 -424 -48 0
149 424 -51 0
149 -424 -67 0
-149 -424 67 0
-149 424 51 0
150 423 -151 0
150 -423 -152 0
-150 -423 152 0
-150 423 151 0
151 424 -70 0
151 -424 -74 0
-151 -424 74 0
-151 424 70 0
152 424 -425 0
152 -423 424 426 0
-152 -424 0
-152 425 -426 0
-152 423 425 0
-153 -9 -154 0
-153 9 154 0
153 9 -154 0
153 -9 154 0
154 367 -399 0
154 -367 399 0
-154 -367 -399 0
-154 367 399 0
155 -156 -164 0
155 -156 -162 0
155 -162 -164 0
-155 162 164 0
-155 156 164 0
-155 156 162 0
156 -422 80 -160 0
156 422 80 -157 0
-156 -80 0
-156 -422 160 0
-156 422 157 0
157 423 -158 0
157 -423 -159 0
-157 -423 159 0
-157 423 158 0
158 424 -86 0
158 -424 -90 0
-158 -424 90 0
-158 424 86 0
159 424 -93 0
159 -424 -98 0
-159 -424 98 0
-159 424 93 0
160 423 -161 0
-160 -423 0
-160 161 0
161 424 -101 0
161 -424 -105 0
-161 -424 105 0
-161 424 101 0
-162 -10 -163 0
-162 10 163 0
162 10 -163 0
162 -10 163 0
163 368 -400 0
163 -368 400 0
-163 -368 -400 0
-163 368 400 0
164 -165 -174 0
164 -165 -172 0
164 -172 -174 0
-164 172 174 0
-164 165 174 0
-164 165 172 0
165 -422 80 -169 0
165 422 80 -166 0
-165 -80 0
-165 -422 169 0
-165 422 166 0
-166 423 167 0
-166 -423 168 0
166 -423 -168 0
166 423 -167 0
-167 -424 117 0
-167 424 115 0
167 424 -115 0
167 -424 -117 0
168 424 -118 0
168 -424 -121 0
-168 -424 121 0
-168 424 118 0
169 423 -171 0
169 -423 424 -170 0
-169 -423 -424 0
-169 423 171 0
-169 -423 170 0
170 425 -426 0
-170 -425 0
-170 426 0
171 424 -122 0
171 -424 -124 0
-171 -424 124 0
-171 424 122 0
-172 -11 -173 0
-172 11 173 0
172 11 -173 0
172 -11 173 0
173 369 -401 0
173 -369 401 0
-173 -369 -401 0
-173 369 401 0
174 -175 -183 0
174 -175 -181 0
174 -181 -183 0
-174 181 183 0
-174 175 183 0
-174 175 181 0
175 -422 80 -179 0
175 422 80 -176 0
-175 -80 0
-175 -422 179 0
-175 422 176 0
176 423 -177 0
176 -423 -178 0
-176 -423 178 0
-176 423 177 0
177 424 -133 0
177 -424 -135 0
-177 -424 135 0
-177 424 133 0
178 424 -136 0
178 -424 -139 0
-178 -424 139 0
-178 424 136 0
179 423 -180 0
-179 -423 0
-179 180 0
180 -424 -425 0
180 424 -140 0
180 -424 -107 0
-180 424 140 0
-180 -424 425 107 0
-181 -12 -182 0
-181 12 182 0
181 12 -182 0
181 -12 182 0
182 370 -402 0
182 -370 402 0
-182 -370 -402 0
-182 370 402 0
183 -184 -189 0
183 -184 -187 0
183 -187 -189 0
-183 187 189 0
-183 184 189 0
-183 184 187 0
184 -422 80 -186 0
184 422 80 -185 0
-184 -80 0
-184 -422 186 0
-184 422 185 0
185 423 -47 0
185 -423 -66 0
-185 -423 66 0
-185 423 47 0
186 423 -73 0
-186 -423 0
-186 73 0
-187 -13 -188 0
-187 13 188 0
187 13 -188 0
187 -13 188 0
188 371 -403 0
188 -371 403 0
-188 -371 -403 0
-188 371 403 0
189 -190 -195 0
189 -190 -193 0
189 -193 -195 0
-189 193 195 0
-189 190 195 0
-189 190 193 0
190 -422 80 -192 0
190 422 80 -191 0
-190 -80 0
-190 -422 192 0
-190 422 191 0
191 423 -89 0
191 -423 -97 0
-191 -423 97 0
-191 423 89 0
192 423 -104 0
-192 -423 0
-192 104 0
-193 -14 -194 0
-193 14 194 0
193 14 -194 0
193 -14 194 0
194 372 -404 0
194 -372 404 0
-194 -372 -404 0
-194 372 404 0
195 -196 -201 0
195 -196 -199 0
195 -199 -201 0
-195 199 201 0
-195 196 201 0
-195 196 199 0
196 -422 80 -198 0
196 422 80 -197 0
-196 -80 0
-196 -422 198 0
-196 422 197 0
197 423 -116 0
197 -423 -120 0
-197 -423 120 0
-197 423 116 0
198 423 -123 0
-198 -423 0
-198 123 0
-199 -15 -200 0
-199 15 200 0
199 15 -200 0
199 -15 200 0
200 373 -405 0
200 -373 405 0
-200 -373 -405 0
-200 373 405 0
201 -202 -207 0
201 -202 -205 0
201 -205 -207 0
-201 205 207 0
-201 202 207 0
-201 202 205 0
202 -422 80 -204 0
202 422 80 -203 0
-202 -80 0
-202 -422 204 0
-202 422 203 0
203 423 -134 0
203 -423 -138 0
-203 -423 138 0
-203 423 134 0
204 423 -141 0
-204 -423 0
-204 141 0
-205 -16 -206 0
-205 16 206 0
205 16 -206 0
205 -16 206 0
206 374 -406 0
206 -374 406 0
-206 -374 -406 0
-206 374 406 0
207 -208 -213 0
207 -208 -211 0
207 -211 -213 0
-207 211 213 0
-207 208 213 0
-207 208 211 0
208 -422 80 -210 0
208 422 80 -209 0
-208 -80 0
-208 -422 210 0
-208 422 209 0
209 423 -149 0
209 -423 -151 0
-209 -423 151 0
-209 423 149 0
210 423 424 -425 0
-210 425 0
-210 -424 0
-210 -423 0
-211 -17 -212 0
-211 17 212 0
211 17 -212 0
211 -17 212 0
212 375 -407 0
212 -375 407 0
-212 -375 -407 0
-212 375 407 0
213 -214 -218 0
213 -214 -216 0
213 -216 -218 0
-213 216 218 0
-213 214 218 0
-213 214 216 0
214 423 -159 215 0
214 -423 -161 215 0
-214 -215 0
-214 -423 161 0
-214 423 159 0
-215 422 80 0
215 -422 0
215 -80 0
-216 -18 -217 0
-216 18 217 0
216 18 -217 0
216 -18 217 0
217 376 -408 0
217 -376 408 0
-217 -376 -408 0
-217 376 408 0
218 -219 -224 0
218 -219 -222 0
218 -222 -224 0
-218 222 224 0
-218 219 224 0
-218 219 222 0
219 -422 80 -221 0
219 422 80 -220 0
-219 -80 0
-219 -422 221 0
-219 422 220 0
220 423 -168 0
220 -423 -171 0
-220 -423 171 0
-220 423 168 0
221 423 424 425 -426 0
-221 426 0
-221 -425 0
-221 -423 0
-221 -424 0
-222 -19 -223 0
-222 19 223 0
222 19 -223 0
222 -19 223 0
223 377 -409 0
223 -377 409 0
-223 -377 -409 0
-223 377 409 0
224 -225 -228 0
224 -225 -226 0
224 -226 -228 0
-224 226 228 0
-224 225 228 0
-224 225 226 0
225 423 -178 215 0
225 -423 -180 215 0
-225 -215 0
-225 -423 180 0
-225 423 178 0
-226 -20 -227 0
-226 20 227 0
226 20 -227 0
226 -20 227 0
227 378 -410 0
227 -378 410 0
-227 -378 -410 0
-227 378 410 0
228 -229 -232 0
228 -229 -230 0
228 -230 -232 0
-228 230 232 0
-228 229 232 0
-228 229 230 0
229 -65 215 0
-229 65 0
-229 -215 0
-230 -21 -231 0
-230 21 231 0
230 21 -231 0
230 -21 231 0
231 379 -411 0
231 -379 411 0
-231 -379 -411 0
-231 379 411 0
232 -233 -236 0
232 -233 -234 0
232 -234 -236 0
-232 234 236 0
-232 233 236 0
-232 233 234 0
233 -96 215 0
-233 96 0
-233 -215 0
-234 -22 -235 0
-234 22 235 0
234 22 -235 0
234 -22 235 0
235 380 -412 0
235 -380 412 0
-235 -380 -412 0
-235 380 412 0
236 -237 -240 0
236 -237 -238 0
236 -238 -240 0
-236 238 240 0
-236 237 240 0
-236 237 238 0
237 -119 215 0
-237 119 0
-237 -215 0
-238 -23 -239 0
-238 23 239 0
238 23 -239 0
238 -23 239 0
239 381 -413 0
239 -381 413 0
-239 -381 -413 0
-239 381 413 0
240 -241 -244 0
240 -241 -242 0
240 -242 -244 0
-240 242 244 0
-240 241 244 0
-240 241 242 0
241 -137 215 0
-241 137 0
-241 -215 0
-242 -24 -243 0
-242 24 243 0
242 24 -243 0
242 -24 243 0
243 382 -414 0
243 -382 414 0
-243 -382 -414 0
-243 382 414 0
244 -245 -248 0
244 -245 -246 0
244 -246 -248 0
-244 246 248 0
-244 245 248 0
-244 245 246 0
245 -150 215 0
-245 150 0
-245 -215 0
-246 -25 -247 0
-246 25 247 0
246 25 -247 0
246 -25 247 0
247 383 -415 0
247 -383 415 0
-247 -383 -415 0
-247 383 415 0
248 -249 -251 -254 0
248 -249 -252 -254 0
248 -249 -251 -252 0
-248 251 254 0
-248 251 252 0
-248 249 0
-248 252 254 0
-249 -26 -250 0
-249 26 250 0
249 26 -250 0
249 -26 250 0
250 384 -416 0
250 -384 416 0
-250 -384 -416 0
-250 384 416 0
251 -169 215 0
-251 169 0
-251 -215 0
-252 -27 -253 0
-252 27 253 0
252 27 -253 0
252 -27 253 0
253 385 -417 0
253 -385 417 0
-253 -385 -417 0
-253 385 417 0
254 -255 -258 0
254 -255 -256 0
254 -256 -258 0
-254 256 258 0
-254 255 258 0
-254 255 256 0
255 -179 215 0
-255 179 0
-255 -215 0
-256 -28 -257 0
-256 28 257 0
256 28 -257 0
256 -28 257 0
257 386 -418 0
257 -386 418 0
-257 -386 -418 0
-257 386 418 0
258 -259 -262 0
258 -259 -260 0
258 -260 -262 0
-258 260 262 0
-258 259 262 0
-258 259 260 0
259 -186 215 0
-259 186 0
-259 -215 0
-260 -29 -261 0
-260 29 261 0
260 29 -261 0
260 -29 261 0
261 387 -419 0
261 -387 419 0
-261 -387 -419 0
-261 387 419 0
262 -263 -266 0
262 -263 -264 0
262 -264 -266 0
-262 264 266 0
-262 263 266 0
-262 263 264 0
263 -192 215 0
-263 192 0
-263 -215 0
-264 -30 -265 0
-264 30 265 0
264 30 -265 0
264 -30 265 0
265 388 -420 0
265 -388 420 0
-265 -388 -420 0
-265 388 420 0
266 -267 -268 0
266 -268 -270 0
266 -267 -270 0
-266 267 270 0
-266 268 270 0
-266 267 268 0
267 -198 215 0
-267 198 0
-267 -215 0
268 31 -269 0
268 -31 269 0
-268 -31 -269 0
-268 31 269 0
269 389 -421 0
269 -389 421 0
-269 -389 -421 0
-269 389 421 0
270 -271 -272 0
270 -272 -274 0
270 -271 -274 0
-270 271 274 0
-270 272 274 0
-270 271 272 0
271 -204 215 0
-271 204 0
-271 -215 0
272 32 -273 0
272 -32 273 0
-272 -32 -273 0
-272 32 273 0
273 390 -422 0
273 -390 422 0
-273 -390 -422 0
-273 390 422 0
274 -275 -276 0
274 -276 -278 0
274 -275 -278 0
-274 275 278 0
-274 276 278 0
-274 275 276 0
275 423 424 -425 215 0
-275 -423 0
-275 -215 0
-275 425 0
-275 -424 0
276 33 -277 0
276 -33 277 0
-276 -33 -277 0
-276 33 277 0
277 391 -423 0
277 -391 423 0
-277 -391 -423 0
-277 391 423 0
278 34 -279 -280 -282 0
278 -34 -279 -280 282 0
-278 279 0
-278 -34 -282 0
-278 280 0
-278 34 282 0
279 215 -221 0
-279 -215 0
-279 221 0
280 35 -281 0
280 -35 281 0
-280 -35 -281 0
-280 35 281 0
281 393 -425 0
281 -393 425 0
-281 -393 -425 0
-281 393 425 0
282 392 -424 0
282 -392 424 0
-282 -392 -424 0
-282 392 424 0
283 36 -284 0
283 -36 284 0
-283 -36 -284 0
-283 36 284 0
284 -364 -286 0
284 -364 -285 0
284 -285 -286 0
-284 285 286 0
-284 364 286 0
-284 364 285 0
-285 396 79 0
285 -396 0
285 -79 0
286 -365 -288 0
286 -365 -287 0
286 -287 -288 0
-286 287 288 0
-286 365 288 0
-286 365 287 0
-287 397 111 0
287 -397 0
287 -111 0
288 -366 -290 0
288 -366 -289 0
288 -289 -290 0
-288 289 290 0
-288 366 290 0
-288 366 289 0
-289 398 129 0
289 -398 0
289 -129 0
290 -367 -292 0
290 -367 -291 0
290 -291 -292 0
-290 291 292 0
-290 367 292 0
-290 367 291 0
-291 399 146 0
291 -399 0
291 -146 0
292 -368 -294 0
292 -368 -293 0
292 -293 -294 0
-292 293 294 0
-292 368 294 0
-292 368 293 0
-293 400 156 0
293 -400 0
293 -156 0
294 -369 -296 0
294 -369 -295 0
294 -295 -296 0
-294 295 296 0
-294 369 296 0
-294 369 295 0
-295 401 165 0
295 -401 0
295 -165 0
296 -370 -298 0
296 -370 -297 0
296 -297 -298 0
-296 297 298 0
-296 370 298 0
-296 370 297 0
-297 402 175 0
297 -402 0
297 -175 0
298 -371 -300 0
298 -371 -299 0
298 -299 -300 0
-298 299 300 0
-298 371 300 0
-298 371 299 0
-299 403 184 0
299 -403 0
299 -184 0
300 -372 -302 0
300 -372 -301 0
300 -301 -302 0
-300 301 302 0
-300 372 302 0
-300 372 301 0
-301 404 190 0
301 -404 0
301 -190 0
302 -373 -304 0
302 -373 -303 0
302 -303 -304 0
-302 303 304 0
-302 373 304 0
-302 373 303 0
-303 405 196 0
303 -405 0
303 -196 0
304 -374 -306 0
304 -374 -305 0
304 -305 -306 0
-304 305 306 0
-304 374 306 0
-304 374 305 0
-305 406 202 0
305 -406 0
305 -202 0
306 -375 -308 0
306 -375 -307 0
306 -307 -308 0
-306 307 308 0
-306 375 308 0
-306 375 307 0
-307 407 208 0
307 -407 0
307 -208 0
308 -376 -310 0
308 -376 -309 0
308 -309 -310 0
-308 309 310 0
-308 376 310 0
-308 376 309 0
-309 408 214 0
309 -408 0
309 -214 0
310 -377 -312 0
310 -377 -311 0
310 -311 -312 0
-310 311 312 0
-310 377 312 0
-310 377 311 0
-311 409 219 0
311 -409 0
311 -219 0
312 -378 -314 0
312 -378 -313 0
312 -313 -314 0
-312 313 314 0
-312 378 314 0
-312 378 313 0
-313 410 225 0
313 -410 0
313 -225 0
314 -379 -316 0
314 -379 -315 0
314 -315 -316 0
-314 315 316 0
-314 379 316 0
-314 379 315 0
-315 411 229 0
315 -411 0
315 -229 0
316 -380 -318 0
316 -380 -317 0
316 -317 -318 0
-316 317 318 0
-316 380 318 0
-316 380 317 0
-317 412 233 0
317 -412 0
317 -233 0
318 -381 -320 0
318 -381 -319 0
318 -319 -320 0
-318 319 320 0
-318 381 320 0
-318 381 319 0
-319 413 237 0
319 -413 0
319 -237 0
320 -382 -322 0
320 -382 -321 0
320 -321 -322 0
-320 321 322 0
-320 382 322 0
-320 382 321 0
-321 414 241 0
321 -414 0
321 -241 0
322 -383 -324 0
322 -383 -323 -325 0
322 -323 -324 -325 0
-322 383 325 0
-322 324 325 0
-322 383 324 0
-322 383 323 0
-322 323 324 0
-323 384 416 0
323 -384 0
323 -416 0
-324 415 245 0
324 -415 0
324 -245 0
-325 385 326 328 0
-325 326 327 328 0
-325 385 326 327 0
325 -385 -327 0
325 -385 -328 0
325 -326 0
325 -327 -328 0
326 -384 -416 0
-326 384 0
-326 416 0
-327 417 251 0
327 -417 0
327 -251 0
328 -386 -330 0
328 -386 -329 0
328 -329 -330 0
-328 329 330 0
-328 386 330 0
-328 386 329 0
-329 418 255 0
329 -418 0
329 -255 0
330 -387 -332 0
330 -387 -331 0
330 -331 -332 0
-330 331 332 0
-330 387 332 0
-330 387 331 0
-331 419 259 0
331 -419 0
331 -259 0
332 -388 -334 0
332 -388 -333 0
332 -333 -334 0
-332 333 334 0
-332 388 334 0
-332 388 333 0
-333 420 263 0
333 -420 0
333 -263 0
334 -389 -336 0
334 -389 -335 0
334 -335 -336 0
-334 335 336 0
-334 389 336 0
-334 389 335 0
-335 421 267 0
335 -421 0
335 -267 0
336 -390 -338 0
336 -390 -337 0
336 -337 -338 0
-336 337 338 0
-336 390 338 0
-336 390 337 0
-337 422 271 0
337 -422 0
337 -271 0
338 -391 -340 0
338 -391 -339 -341 0
338 -339 -340 -341 0
-338 391 341 0
-338 340 341 0
-338 391 340 0
-338 391 339 0
-338 339 340 0
-339 392 424 0
339 -392 0
339 -424 0
-340 423 275 0
340 -423 0
340 -275 0
-341 393 342 343 0
-341 342 35 343 0
-341 393 342 35 0
341 -393 -35 0
341 -393 -343 0
341 -342 0
341 -35 -343 0
342 -392 -424 0
-342 392 0
-342 424 0
-343 425 279 0
343 -425 0
343 -279 0
344 345 -347 0
344 -345 347 0
-344 -345 -347 0
-344 345 347 0
345 110 -346 0
345 -110 346 0
-345 -110 -346 0
-345 110 346 0
346 -79 108 0
346 79 -108 0
-346 79 108 0
-346 -79 -108 0
347 286 -348 0
347 -286 348 0
-347 -286 -348 0
-347 286 348 0
348 -364 285 0
348 364 -285 0
-348 364 285 0
-348 -364 -285 0
-349 -350 -352 354 0
-349 350 352 354 0
349 -354 0
349 -350 352 0
349 350 -352 0
350 128 -351 0
350 -128 351 0
-350 -128 -351 0
-350 128 351 0
351 -111 126 0
351 111 -126 0
-351 111 126 0
-351 -111 -126 0
352 288 -353 0
352 -288 353 0
-352 -288 -353 0
-352 288 353 0
353 -365 287 0
353 365 -287 0
-353 365 287 0
-353 -365 -287 0
-354 355 357 -359 -361 0
-354 -355 -357 -359 -361 0
-354 355 357 359 361 0
-354 -355 -357 359 361 0
354 355 -357 0
354 -355 357 0
354 359 -361 0
354 -359 361 0
355 145 -356 0
355 -145 356 0
-355 -145 -356 0
-355 145 356 0
356 -129 143 0
356 129 -143 0
-356 129 143 0
-356 -129 -143 0
357 290 -358 0
357 -290 358 0
-357 -290 -358 0
-357 290 358 0
358 -366 289 0
358 366 -289 0
-358 366 289 0
-358 -366 -289 0
359 155 -360 0
359 -155 360 0
-359 -155 -360 0
-359 155 360 0
360 -146 153 0
360 146 -153 0
-360 146 153 0
-360 -146 -153 0
361 292 -362 0
361 -292 362 0
-361 -292 -362 0
-361 292 362 0
362 -367 291 0
362 367 -291 0
-362 367 291 0
-362 -367 -291 0
-427 0
2 0

